
Gurobi 6.0.0 (linux64) logging started Fri Mar 20 12:35:29 2015


Gurobi 6.0.0 (linux64) logging started Sun Mar 22 11:32:00 2015


Gurobi 6.0.0 (linux64) logging started Mon Mar 23 22:11:12 2015


Gurobi 6.0.0 (linux64) logging started Tue Mar 24 16:24:32 2015


Gurobi 6.0.0 (linux64) logging started Thu Mar 26 19:34:37 2015

